# Solution for model count
# Objective value = 10
z#1 0
z#2 1
z#3 1
z#4 0
z#5 1
z#6 1
z#7 0
z#8 1
z#9 0
z#10 0
z#11 0
z#12 1
z#13 0
z#14 0
z#15 1
z#16 1
z#17 1
z#18 0
z#19 1
z#20 0
z#21 0
z#22 0
z#23 0
z#24 0
x#24 0
x#23 0
x#22 0
x#21 0
x#20 0
x#19 911
x#18 0
x#17 448
x#16 2250
x#15 1640
x#14 0
x#13 0
x#12 646
x#11 0
x#10 0
x#9 0
x#8 872
x#7 0
x#6 619
x#5 1984
x#4 0
x#3 204
x#2 426
x#1 0
